c turning on binary mode checking
c parsing input formula with 259840 variables and 1039924 clauses
c finished parsing, read 2932622 bytes from proof file
c detected empty clause; start verification via backward checking
c 3152 of 1039924 clauses in core                            
c 1139 of 113406 lemmas in core using 30402 resolution steps
c 0 RAT lemmas in core; 114 redundant literals in core lemmas
s VERIFIED
c verification time: 1.244 seconds
